problems/csplib-prob001/CarSequencing-models/noch/O2/lingeling/model-random17-solution000001.eprime-solution
language ESSENCE' 1.0

letting car_Function1D be
        [21, 10, 8, 11, 21, 5, 10, 11, 18, 11, 5, 21, 10, 11, 21, 5, 4, 18, 11, 10, 6, 11, 18, 14, 18, 5, 10, 11, 18,
         18, 17, 18, 14, 11, 18, 14, 5, 11, 18, 13, 18, 6, 10, 18, 8, 11, 18, 14, 18, 5, 11, 10, 18, 11, 12, 11, 3, 10,
         21, 5, 18, 11, 10, 11, 18, 10, 11, 5, 11, 18, 10, 11, 5, 1, 18, 18, 11, 5, 11, 18, 18, 10, 5, 18, 18, 21, 11,
         13, 18, 5, 10, 11, 18, 10, 2, 11, 18, 10, 11, 5, 19, 18, 11, 10, 5, 18, 3, 10, 11, 15, 10, 21, 18, 11, 10, 5,
         18, 18, 10, 18, 20, 14, 11, 18, 11, 18, 10, 5, 18, 13, 11, 3, 10, 5, 18, 7, 10, 11, 5, 10, 7, 18, 10, 11, 5,
         18, 14, 11, 18, 11, 9, 18, 11, 4, 11, 3, 5, 4, 11, 18, 18, 10, 5, 18, 11, 1, 18, 5, 10, 11, 18, 10, 5, 11, 18,
         18, 11, 12, 22, 18, 18, 11, 10, 5, 11, 18, 10, 11, 2, 13, 18, 3, 10, 2, 18, 10, 18, 22, 16, 21; int(1..200)]
