problems/csplib-prob001/CarSequencing-models/noch/O2/lingeling/model-random17-solution000001.solution
language Essence 1.3

letting car be
        function(1 --> 21, 2 --> 10, 3 --> 8, 4 --> 11, 5 --> 21, 6 --> 5, 7 --> 10, 8 --> 11, 9 --> 18, 10 --> 11,
                 11 --> 5, 12 --> 21, 13 --> 10, 14 --> 11, 15 --> 21, 16 --> 5, 17 --> 4, 18 --> 18, 19 --> 11,
                 20 --> 10, 21 --> 6, 22 --> 11, 23 --> 18, 24 --> 14, 25 --> 18, 26 --> 5, 27 --> 10, 28 --> 11,
                 29 --> 18, 30 --> 18, 31 --> 17, 32 --> 18, 33 --> 14, 34 --> 11, 35 --> 18, 36 --> 14, 37 --> 5,
                 38 --> 11, 39 --> 18, 40 --> 13, 41 --> 18, 42 --> 6, 43 --> 10, 44 --> 18, 45 --> 8, 46 --> 11,
                 47 --> 18, 48 --> 14, 49 --> 18, 50 --> 5, 51 --> 11, 52 --> 10, 53 --> 18, 54 --> 11, 55 --> 12,
                 56 --> 11, 57 --> 3, 58 --> 10, 59 --> 21, 60 --> 5, 61 --> 18, 62 --> 11, 63 --> 10, 64 --> 11,
                 65 --> 18, 66 --> 10, 67 --> 11, 68 --> 5, 69 --> 11, 70 --> 18, 71 --> 10, 72 --> 11, 73 --> 5,
                 74 --> 1, 75 --> 18, 76 --> 18, 77 --> 11, 78 --> 5, 79 --> 11, 80 --> 18, 81 --> 18, 82 --> 10,
                 83 --> 5, 84 --> 18, 85 --> 18, 86 --> 21, 87 --> 11, 88 --> 13, 89 --> 18, 90 --> 5, 91 --> 10,
                 92 --> 11, 93 --> 18, 94 --> 10, 95 --> 2, 96 --> 11, 97 --> 18, 98 --> 10, 99 --> 11, 100 --> 5,
                 101 --> 19, 102 --> 18, 103 --> 11, 104 --> 10, 105 --> 5, 106 --> 18, 107 --> 3, 108 --> 10,
                 109 --> 11, 110 --> 15, 111 --> 10, 112 --> 21, 113 --> 18, 114 --> 11, 115 --> 10, 116 --> 5,
                 117 --> 18, 118 --> 18, 119 --> 10, 120 --> 18, 121 --> 20, 122 --> 14, 123 --> 11, 124 --> 18,
                 125 --> 11, 126 --> 18, 127 --> 10, 128 --> 5, 129 --> 18, 130 --> 13, 131 --> 11, 132 --> 3,
                 133 --> 10, 134 --> 5, 135 --> 18, 136 --> 7, 137 --> 10, 138 --> 11, 139 --> 5, 140 --> 10, 141 --> 7,
                 142 --> 18, 143 --> 10, 144 --> 11, 145 --> 5, 146 --> 18, 147 --> 14, 148 --> 11, 149 --> 18,
                 150 --> 11, 151 --> 9, 152 --> 18, 153 --> 11, 154 --> 4, 155 --> 11, 156 --> 3, 157 --> 5, 158 --> 4,
                 159 --> 11, 160 --> 18, 161 --> 18, 162 --> 10, 163 --> 5, 164 --> 18, 165 --> 11, 166 --> 1,
                 167 --> 18, 168 --> 5, 169 --> 10, 170 --> 11, 171 --> 18, 172 --> 10, 173 --> 5, 174 --> 11,
                 175 --> 18, 176 --> 18, 177 --> 11, 178 --> 12, 179 --> 22, 180 --> 18, 181 --> 18, 182 --> 11,
                 183 --> 10, 184 --> 5, 185 --> 11, 186 --> 18, 187 --> 10, 188 --> 11, 189 --> 2, 190 --> 13,
                 191 --> 18, 192 --> 3, 193 --> 10, 194 --> 2, 195 --> 18, 196 --> 10, 197 --> 18, 198 --> 22,
                 199 --> 16, 200 --> 21)
